<instance>
    <presentation name="clique-example" maxConstraintArity="2" format="XCSP 2.0"/>
    <domains nbDomains="1">
        <domain name="D0" nbValues="6">1..6</domain>
    </domains>
    <variables nbVariables="7">
        <variable name="A" domain="D0"/>
        <variable name="B" domain="D0"/>
        <variable name="C" domain="D0"/>
        <variable name="D" domain="D0"/>
        <variable name="E" domain="D0"/>
        <variable name="F" domain="D0"/>
        <variable name="G" domain="D0"/>
    </variables>
    <relations nbRelations="5">
        <relation name="dist1" arity="2" nbTuples="16" semantics="conflicts">
1 1|1 2|2 1|2 2|2 3|3 2|3 3|3 4|4 3|4 4|4 5|5 4|5 5|5 6|6 5|6 6
        </relation>
        <relation name="dist2" arity="2" nbTuples="14" semantics="conflicts">
1 1|1 3|2 2|2 4|3 1|3 3|3 5|4 2|4 4|4 6|5 3|5 5|6 4|6 6
        </relation>
        <relation name="dist3" arity="2" nbTuples="12" semantics="conflicts">1 1|1 4|2 2|2 5|3 3|3 6|4 1|4 4|5 2|5 5|6 3|6 6</relation>
        <relation name="dist4" arity="2" nbTuples="10" semantics="conflicts">1 1|1 5|2 2|2 6|3 3|4 4|5 1|5 5|6 2|6 6</relation>
        <relation name="dist5" arity="2" nbTuples="8" semantics="conflicts">1 1|1 6|2 2|3 3|4 4|5 5|6 1|6 6</relation>
    </relations>
    <constraints nbConstraints="12">
        <constraint name="C0" arity="2" scope="A B" reference="dist1"/>
        <constraint name="C1" arity="2" scope="A D" reference="dist2"/>
        <constraint name="C2" arity="2" scope="A C" reference="dist3"/>
        <constraint name="C3" arity="2" scope="B C" reference="dist4"/>
        <constraint name="C4" arity="2" scope="B D" reference="dist5"/>
        <constraint name="C5" arity="2" scope="C D" reference="dist1"/>
        <constraint name="C6" arity="2" scope="C E" reference="dist2"/>
        <constraint name="C7" arity="2" scope="D F" reference="dist3"/>
        <constraint name="C8" arity="2" scope="D E" reference="dist4"/>
        <constraint name="C9" arity="2" scope="E F" reference="dist1"/>
        <constraint name="C10" arity="2" scope="E G" reference="dist2"/>
        <constraint name="C11" arity="2" scope="F G" reference="dist3"/>
    </constraints>
</instance>